examples/satx_examples/external_satisfy/graph.txt
c This graph contains a clique of bits 10
p edge 100 2414
e 1 0
e 3 2
e 4 0
e 4 2
e 5 0
e 5 3
e 5 4
e 6 0
e 6 1
e 6 2
e 7 1
e 7 3
e 7 4
e 7 5
e 7 6
e 8 0
e 8 1
e 8 4
e 8 6
e 9 0
e 9 1
e 9 2
e 9 3
e 9 4
e 9 5
e 9 6
e 9 8
e 10 0
e 10 3
e 10 5
e 10 6
e 10 7
e 11 0
e 11 2
e 11 3
e 11 6
e 11 7
e 11 9
e 12 0
e 12 1
e 12 2
e 12 5
e 12 7
e 12 8
e 12 9
e 12 10
e 12 11
e 13 4
e 13 5
e 13 6
e 13 9
e 13 10
e 13 11
e 14 2
e 14 3
e 14 5
e 14 7
e 14 8
e 14 9
e 14 10
e 14 12
e 14 13
e 15 1
e 15 5
e 15 8
e 15 10
e 15 11
e 15 14
e 16 3
e 16 5
e 16 6
e 16 8
e 16 9
e 16 10
e 16 11
e 16 12
e 16 15
e 17 0
e 17 3
e 17 5
e 17 8
e 17 10
e 17 11
e 17 12
e 17 14
e 17 16
e 18 0
e 18 1
e 18 2
e 18 3
e 18 5
e 18 9
e 18 10
e 18 11
e 18 14
e 18 15
e 18 17
e 19 0
e 19 1
e 19 2
e 19 3
e 19 6
e 19 7
e 19 8
e 19 9
e 19 12
e 19 17
e 20 1
e 20 3
e 20 4
e 20 7
e 20 8
e 20 11
e 20 12
e 20 19
e 21 1
e 21 3
e 21 6
e 21 7
e 21 10
e 21 15
e 21 16
e 21 18
e 21 19
e 21 20
e 22 0
e 22 3
e 22 4
e 22 5
e 22 6
e 22 8
e 22 9
e 22 10
e 22 11
e 22 17
e 22 19
e 22 20
e 22 21
e 23 2
e 23 4
e 23 5
e 23 8
e 23 14
e 23 15
e 23 17
e 23 18
e 24 1
e 24 5
e 24 6
e 24 7
e 24 8
e 24 9
e 24 11
e 24 12
e 24 13
e 24 14
e 24 19
e 24 23
e 25 2
e 25 3
e 25 4
e 25 6
e 25 7
e 25 8
e 25 9
e 25 11
e 25 12
e 25 14
e 25 16
e 25 17
e 25 18
e 25 19
e 25 20
e 25 22
e 25 24
e 26 1
e 26 2
e 26 3
e 26 4
e 26 5
e 26 6
e 26 10
e 26 12
e 26 15
e 26 16
e 26 19
e 26 22
e 27 0
e 27 1
e 27 3
e 27 6
e 27 8
e 27 9
e 27 10
e 27 12
e 27 14
e 27 15
e 27 16
e 27 17
e 27 19
e 27 21
e 27 24
e 28 7
e 28 8
e 28 9
e 28 10
e 28 11
e 28 14
e 28 15
e 28 18
e 28 19
e 28 20
e 28 22
e 28 24
e 28 26
e 29 0
e 29 1
e 29 2
e 29 5
e 29 8
e 29 9
e 29 11
e 29 12
e 29 13
e 29 14
e 29 15
e 29 18
e 29 20
e 29 23
e 29 25
e 29 27
e 29 28
e 30 0
e 30 5
e 30 6
e 30 9
e 30 10
e 30 11
e 30 12
e 30 13
e 30 14
e 30 15
e 30 19
e 30 24
e 30 25
e 30 26
e 30 28
e 31 1
e 31 2
e 31 4
e 31 5
e 31 7
e 31 12
e 31 14
e 31 16
e 31 17
e 31 18
e 31 19
e 31 20
e 31 21
e 31 25
e 31 26
e 31 27
e 31 29
e 32 1
e 32 2
e 32 5
e 32 7
e 32 8
e 32 11
e 32 16
e 32 18
e 32 19
e 32 21
e 32 22
e 32 24
e 32 25
e 32 27
e 32 28
e 33 0
e 33 1
e 33 5
e 33 6
e 33 13
e 33 16
e 33 18
e 33 21
e 33 22
e 33 24
e 33 26
e 33 27
e 33 28
e 33 29
e 33 30
e 33 32
e 34 1
e 34 3
e 34 4
e 34 5
e 34 6
e 34 7
e 34 8
e 34 15
e 34 18
e 34 24
e 34 25
e 34 27
e 34 28
e 34 30
e 34 31
e 35 0
e 35 1
e 35 2
e 35 3
e 35 6
e 35 7
e 35 10
e 35 11
e 35 14
e 35 15
e 35 16
e 35 18
e 35 19
e 35 20
e 35 21
e 35 23
e 35 24
e 35 25
e 35 27
e 35 28
e 35 30
e 35 32
e 36 1
e 36 2
e 36 3
e 36 6
e 36 7
e 36 10
e 36 11
e 36 12
e 36 13
e 36 14
e 36 15
e 36 17
e 36 20
e 36 21
e 36 24
e 36 26
e 36 27
e 36 31
e 36 32
e 36 33
e 36 34
e 36 35
e 37 0
e 37 1
e 37 4
e 37 5
e 37 7
e 37 8
e 37 9
e 37 11
e 37 12
e 37 19
e 37 20
e 37 22
e 37 25
e 37 26
e 37 27
e 37 28
e 37 31
e 37 33
e 37 34
e 37 35
e 37 36
e 38 0
e 38 3
e 38 4
e 38 7
e 38 9
e 38 12
e 38 13
e 38 15
e 38 16
e 38 18
e 38 19
e 38 20
e 38 21
e 38 26
e 38 27
e 38 28
e 38 32
e 38 35
e 38 36
e 39 0
e 39 1
e 39 2
e 39 3
e 39 5
e 39 6
e 39 8
e 39 9
e 39 15
e 39 16
e 39 18
e 39 22
e 39 24
e 39 25
e 39 26
e 39 27
e 39 31
e 39 32
e 39 33
e 39 34
e 39 36
e 39 37
e 40 5
e 40 6
e 40 7
e 40 8
e 40 9
e 40 11
e 40 12
e 40 13
e 40 14
e 40 16
e 40 18
e 40 20
e 40 23
e 40 28
e 40 31
e 40 33
e 40 36
e 40 37
e 41 0
e 41 1
e 41 3
e 41 5
e 41 6
e 41 9
e 41 10
e 41 12
e 41 13
e 41 14
e 41 26
e 41 27
e 41 29
e 41 30
e 41 32
e 41 33
e 41 36
e 41 37
e 41 40
e 42 0
e 42 2
e 42 3
e 42 5
e 42 8
e 42 10
e 42 15
e 42 17
e 42 19
e 42 20
e 42 21
e 42 24
e 42 25
e 42 28
e 42 33
e 42 34
e 42 38
e 42 41
e 43 1
e 43 2
e 43 5
e 43 7
e 43 8
e 43 9
e 43 13
e 43 14
e 43 15
e 43 18
e 43 20
e 43 23
e 43 24
e 43 26
e 43 28
e 43 31
e 43 32
e 43 33
e 43 35
e 43 36
e 43 37
e 43 39
e 43 40
e 43 41
e 43 42
e 44 2
e 44 3
e 44 4
e 44 6
e 44 7
e 44 9
e 44 11
e 44 13
e 44 14
e 44 15
e 44 17
e 44 18
e 44 19
e 44 21
e 44 24
e 44 25
e 44 26
e 44 33
e 44 37
e 44 38
e 44 40
e 45 0
e 45 1
e 45 2
e 45 3
e 45 5
e 45 6
e 45 7
e 45 9
e 45 10
e 45 12
e 45 17
e 45 18
e 45 19
e 45 21
e 45 22
e 45 23
e 45 24
e 45 25
e 45 26
e 45 28
e 45 31
e 45 32
e 45 36
e 45 37
e 45 38
e 45 40
e 45 41
e 45 43
e 45 44
e 46 0
e 46 1
e 46 6
e 46 10
e 46 17
e 46 20
e 46 23
e 46 25
e 46 26
e 46 27
e 46 28
e 46 30
e 46 31
e 46 34
e 46 35
e 46 36
e 46 38
e 46 39
e 46 40
e 46 41
e 46 43
e 46 44
e 47 2
e 47 3
e 47 4
e 47 5
e 47 7
e 47 8
e 47 11
e 47 16
e 47 20
e 47 21
e 47 22
e 47 23
e 47 24
e 47 26
e 47 27
e 47 31
e 47 32
e 47 40
e 47 42
e 47 44
e 47 45
e 48 3
e 48 7
e 48 9
e 48 10
e 48 12
e 48 14
e 48 15
e 48 16
e 48 17
e 48 18
e 48 19
e 48 22
e 48 24
e 48 26
e 48 27
e 48 28
e 48 29
e 48 31
e 48 32
e 48 33
e 48 35
e 48 37
e 48 38
e 48 42
e 48 46
e 49 2
e 49 4
e 49 5
e 49 7
e 49 10
e 49 11
e 49 12
e 49 13
e 49 14
e 49 15
e 49 18
e 49 20
e 49 21
e 49 27
e 49 29
e 49 30
e 49 33
e 49 35
e 49 36
e 49 37
e 49 38
e 49 39
e 49 40
e 49 43
e 49 44
e 49 46
e 49 47
e 50 0
e 50 4
e 50 7
e 50 8
e 50 10
e 50 12
e 50 14
e 50 15
e 50 17
e 50 21
e 50 25
e 50 28
e 50 30
e 50 34
e 50 38
e 50 41
e 50 42
e 50 44
e 50 46
e 50 49
e 51 2
e 51 4
e 51 5
e 51 9
e 51 13
e 51 15
e 51 16
e 51 17
e 51 18
e 51 19
e 51 20
e 51 21
e 51 24
e 51 25
e 51 26
e 51 27
e 51 28
e 51 29
e 51 30
e 51 35
e 51 37
e 51 39
e 51 40
e 51 42
e 51 43
e 51 45
e 51 48
e 51 49
e 51 50
e 52 1
e 52 2
e 52 3
e 52 4
e 52 7
e 52 9
e 52 11
e 52 12
e 52 15
e 52 16
e 52 17
e 52 18
e 52 23
e 52 24
e 52 25
e 52 27
e 52 31
e 52 33
e 52 35
e 52 37
e 52 39
e 52 41
e 52 47
e 52 48
e 53 6
e 53 7
e 53 9
e 53 13
e 53 15
e 53 17
e 53 19
e 53 24
e 53 27
e 53 28
e 53 30
e 53 32
e 53 33
e 53 35
e 53 37
e 53 39
e 53 41
e 53 42
e 53 43
e 53 48
e 53 52
e 54 1
e 54 3
e 54 4
e 54 5
e 54 8
e 54 9
e 54 11
e 54 12
e 54 13
e 54 14
e 54 18
e 54 25
e 54 27
e 54 29
e 54 33
e 54 36
e 54 40
e 54 41
e 54 43
e 54 46
e 54 47
e 54 48
e 54 49
e 54 50
e 54 52
e 55 0
e 55 4
e 55 6
e 55 9
e 55 10
e 55 11
e 55 12
e 55 16
e 55 18
e 55 20
e 55 23
e 55 29
e 55 35
e 55 36
e 55 37
e 55 39
e 55 40
e 55 41
e 55 42
e 55 43
e 55 45
e 55 48
e 55 49
e 55 53
e 55 54
e 56 2
e 56 5
e 56 7
e 56 8
e 56 11
e 56 13
e 56 14
e 56 16
e 56 17
e 56 18
e 56 23
e 56 24
e 56 26
e 56 29
e 56 31
e 56 33
e 56 34
e 56 35
e 56 37
e 56 39
e 56 47
e 56 49
e 56 50
e 56 52
e 57 0
e 57 1
e 57 2
e 57 4
e 57 5
e 57 8
e 57 9
e 57 12
e 57 14
e 57 15
e 57 19
e 57 20
e 57 21
e 57 22
e 57 24
e 57 27
e 57 29
e 57 30
e 57 33
e 57 34
e 57 36
e 57 37
e 57 38
e 57 39
e 57 40
e 57 41
e 57 42
e 57 43
e 57 45
e 57 46
e 57 47
e 57 49
e 57 50
e 57 51
e 57 52
e 57 56
e 58 1
e 58 2
e 58 4
e 58 6
e 58 7
e 58 8
e 58 9
e 58 11
e 58 12
e 58 14
e 58 15
e 58 19
e 58 20
e 58 23
e 58 24
e 58 26
e 58 27
e 58 29
e 58 31
e 58 32
e 58 34
e 58 36
e 58 44
e 58 45
e 58 46
e 58 47
e 58 50
e 58 53
e 58 55
e 58 56
e 58 57
e 59 1
e 59 3
e 59 4
e 59 6
e 59 8
e 59 10
e 59 11
e 59 12
e 59 17
e 59 20
e 59 24
e 59 26
e 59 27
e 59 29
e 59 30
e 59 32
e 59 37
e 59 38
e 59 39
e 59 41
e 59 44
e 59 45
e 59 49
e 59 51
e 59 53
e 59 55
e 59 58
e 60 1
e 60 3
e 60 4
e 60 6
e 60 7
e 60 10
e 60 12
e 60 14
e 60 15
e 60 16
e 60 19
e 60 20
e 60 21
e 60 24
e 60 25
e 60 26
e 60 27
e 60 28
e 60 29
e 60 31
e 60 32
e 60 33
e 60 34
e 60 36
e 60 38
e 60 40
e 60 42
e 60 44
e 60 48
e 60 49
e 60 53
e 60 54
e 60 58
e 61 2
e 61 4
e 61 5
e 61 6
e 61 7
e 61 9
e 61 10
e 61 11
e 61 15
e 61 16
e 61 17
e 61 18
e 61 20
e 61 22
e 61 23
e 61 27
e 61 29
e 61 37
e 61 38
e 61 39
e 61 40
e 61 41
e 61 46
e 61 48
e 61 49
e 61 50
e 61 53
e 61 54
e 61 55
e 61 56
e 61 58
e 61 59
e 62 0
e 62 1
e 62 4
e 62 5
e 62 6
e 62 8
e 62 9
e 62 14
e 62 16
e 62 17
e 62 20
e 62 22
e 62 23
e 62 32
e 62 33
e 62 34
e 62 35
e 62 38
e 62 40
e 62 41
e 62 43
e 62 48
e 62 49
e 62 50
e 62 56
e 62 61
e 63 0
e 63 5
e 63 8
e 63 9
e 63 10
e 63 12
e 63 15
e 63 16
e 63 18
e 63 20
e 63 21
e 63 22
e 63 23
e 63 24
e 63 25
e 63 26
e 63 28
e 63 37
e 63 40
e 63 43
e 63 44
e 63 45
e 63 46
e 63 48
e 63 50
e 63 51
e 63 53
e 63 55
e 63 62
e 64 0
e 64 1
e 64 5
e 64 6
e 64 8
e 64 9
e 64 10
e 64 12
e 64 14
e 64 17
e 64 19
e 64 20
e 64 21
e 64 22
e 64 23
e 64 25
e 64 29
e 64 30
e 64 31
e 64 32
e 64 33
e 64 34
e 64 35
e 64 36
e 64 41
e 64 43
e 64 45
e 64 47
e 64 48
e 64 63
e 65 1
e 65 2
e 65 5
e 65 6
e 65 8
e 65 9
e 65 11
e 65 12
e 65 13
e 65 15
e 65 17
e 65 24
e 65 25
e 65 26
e 65 27
e 65 29
e 65 30
e 65 31
e 65 32
e 65 34
e 65 39
e 65 41
e 65 42
e 65 43
e 65 44
e 65 47
e 65 50
e 65 52
e 65 54
e 65 56
e 65 59
e 65 61
e 65 64
e 66 4
e 66 5
e 66 6
e 66 7
e 66 8
e 66 12
e 66 13
e 66 21
e 66 23
e 66 24
e 66 28
e 66 31
e 66 32
e 66 37
e 66 44
e 66 46
e 66 48
e 66 49
e 66 50
e 66 51
e 66 53
e 66 55
e 66 56
e 66 60
e 66 64
e 67 0
e 67 3
e 67 6
e 67 9
e 67 11
e 67 12
e 67 14
e 67 16
e 67 17
e 67 20
e 67 22
e 67 23
e 67 24
e 67 27
e 67 28
e 67 29
e 67 32
e 67 34
e 67 35
e 67 36
e 67 37
e 67 41
e 67 42
e 67 44
e 67 46
e 67 47
e 67 49
e 67 50
e 67 51
e 67 52
e 67 56
e 67 57
e 67 64
e 67 66
e 68 0
e 68 1
e 68 3
e 68 5
e 68 8
e 68 9
e 68 10
e 68 13
e 68 16
e 68 17
e 68 18
e 68 25
e 68 26
e 68 28
e 68 32
e 68 33
e 68 34
e 68 38
e 68 41
e 68 43
e 68 45
e 68 46
e 68 47
e 68 50
e 68 51
e 68 55
e 68 61
e 68 67
e 69 0
e 69 1
e 69 2
e 69 7
e 69 8
e 69 9
e 69 10
e 69 13
e 69 15
e 69 20
e 69 21
e 69 23
e 69 25
e 69 30
e 69 33
e 69 34
e 69 35
e 69 36
e 69 37
e 69 38
e 69 42
e 69 43
e 69 44
e 69 45
e 69 49
e 69 51
e 69 53
e 69 54
e 69 55
e 69 57
e 69 58
e 69 59
e 69 61
e 69 62
e 69 63
e 69 67
e 69 68
e 70 2
e 70 6
e 70 8
e 70 12
e 70 13
e 70 17
e 70 18
e 70 19
e 70 23
e 70 27
e 70 28
e 70 29
e 70 30
e 70 31
e 70 33
e 70 34
e 70 38
e 70 40
e 70 41
e 70 43
e 70 46
e 70 47
e 70 49
e 70 52
e 70 56
e 70 57
e 70 58
e 70 61
e 70 62
e 70 66
e 70 68
e 70 69
e 71 7
e 71 8
e 71 9
e 71 10
e 71 11
e 71 12
e 71 13
e 71 14
e 71 19
e 71 21
e 71 25
e 71 27
e 71 28
e 71 30
e 71 31
e 71 33
e 71 35
e 71 41
e 71 42
e 71 43
e 71 45
e 71 48
e 71 49
e 71 51
e 71 52
e 71 54
e 71 55
e 71 56
e 71 58
e 71 59
e 71 63
e 71 65
e 71 68
e 71 69
e 71 70
e 72 0
e 72 2
e 72 3
e 72 4
e 72 5
e 72 7
e 72 9
e 72 10
e 72 12
e 72 14
e 72 15
e 72 18
e 72 19
e 72 20
e 72 21
e 72 23
e 72 24
e 72 26
e 72 27
e 72 28
e 72 29
e 72 32
e 72 33
e 72 37
e 72 39
e 72 40
e 72 41
e 72 43
e 72 47
e 72 48
e 72 50
e 72 56
e 72 58
e 72 61
e 72 66
e 72 69
e 72 70
e 72 71
e 73 1
e 73 2
e 73 4
e 73 5
e 73 6
e 73 9
e 73 12
e 73 16
e 73 17
e 73 20
e 73 22
e 73 24
e 73 25
e 73 26
e 73 29
e 73 31
e 73 32
e 73 33
e 73 37
e 73 39
e 73 40
e 73 41
e 73 42
e 73 46
e 73 47
e 73 49
e 73 50
e 73 53
e 73 59
e 73 60
e 73 63
e 73 64
e 73 66
e 73 71
e 73 72
e 74 2
e 74 4
e 74 5
e 74 6
e 74 7
e 74 9
e 74 11
e 74 17
e 74 20
e 74 21
e 74 24
e 74 25
e 74 27
e 74 28
e 74 30
e 74 31
e 74 33
e 74 38
e 74 39
e 74 41
e 74 45
e 74 46
e 74 50
e 74 55
e 74 57
e 74 58
e 74 59
e 74 60
e 74 61
e 74 62
e 74 66
e 74 67
e 74 68
e 74 69
e 74 71
e 74 73
e 75 1
e 75 5
e 75 7
e 75 8
e 75 14
e 75 17
e 75 18
e 75 23
e 75 24
e 75 28
e 75 29
e 75 30
e 75 31
e 75 32
e 75 33
e 75 34
e 75 35
e 75 38
e 75 40
e 75 41
e 75 50
e 75 52
e 75 55
e 75 57
e 75 58
e 75 59
e 75 60
e 75 62
e 75 65
e 75 66
e 75 67
e 75 68
e 75 69
e 75 70
e 75 71
e 75 74
e 76 0
e 76 1
e 76 3
e 76 4
e 76 9
e 76 11
e 76 12
e 76 16
e 76 17
e 76 19
e 76 21
e 76 22
e 76 23
e 76 24
e 76 28
e 76 29
e 76 35
e 76 36
e 76 37
e 76 38
e 76 39
e 76 43
e 76 45
e 76 47
e 76 48
e 76 50
e 76 51
e 76 55
e 76 56
e 76 57
e 76 62
e 76 67
e 76 68
e 76 69
e 76 73
e 77 0
e 77 3
e 77 4
e 77 5
e 77 7
e 77 9
e 77 10
e 77 11
e 77 13
e 77 15
e 77 16
e 77 18
e 77 22
e 77 26
e 77 29
e 77 30
e 77 33
e 77 34
e 77 35
e 77 36
e 77 38
e 77 40
e 77 43
e 77 44
e 77 47
e 77 48
e 77 50
e 77 53
e 77 57
e 77 58
e 77 59
e 77 60
e 77 63
e 77 65
e 77 66
e 77 68
e 77 71
e 77 72
e 77 75
e 77 76
e 78 0
e 78 2
e 78 5
e 78 6
e 78 9
e 78 10
e 78 12
e 78 14
e 78 15
e 78 17
e 78 23
e 78 24
e 78 25
e 78 29
e 78 33
e 78 35
e 78 37
e 78 38
e 78 40
e 78 44
e 78 47
e 78 48
e 78 52
e 78 54
e 78 55
e 78 56
e 78 58
e 78 60
e 78 61
e 78 64
e 78 65
e 78 66
e 78 72
e 78 74
e 79 8
e 79 11
e 79 12
e 79 13
e 79 14
e 79 15
e 79 19
e 79 21
e 79 23
e 79 25
e 79 26
e 79 27
e 79 30
e 79 36
e 79 37
e 79 41
e 79 42
e 79 43
e 79 45
e 79 46
e 79 48
e 79 51
e 79 52
e 79 54
e 79 55
e 79 57
e 79 58
e 79 60
e 79 62
e 79 63
e 79 64
e 79 69
e 79 71
e 79 73
e 79 74
e 79 75
e 80 0
e 80 3
e 80 5
e 80 9
e 80 11
e 80 12
e 80 13
e 80 17
e 80 18
e 80 20
e 80 22
e 80 24
e 80 26
e 80 27
e 80 30
e 80 32
e 80 34
e 80 35
e 80 42
e 80 43
e 80 44
e 80 48
e 80 49
e 80 54
e 80 55
e 80 56
e 80 60
e 80 68
e 80 70
e 80 71
e 80 72
e 80 74
e 80 75
e 80 76
e 80 77
e 80 78
e 81 1
e 81 2
e 81 3
e 81 6
e 81 8
e 81 11
e 81 13
e 81 14
e 81 15
e 81 19
e 81 21
e 81 22
e 81 26
e 81 27
e 81 28
e 81 34
e 81 35
e 81 36
e 81 38
e 81 39
e 81 40
e 81 43
e 81 45
e 81 46
e 81 48
e 81 49
e 81 52
e 81 53
e 81 54
e 81 56
e 81 57
e 81 58
e 81 59
e 81 60
e 81 62
e 81 65
e 81 67
e 81 69
e 81 71
e 81 74
e 81 78
e 82 1
e 82 2
e 82 3
e 82 4
e 82 5
e 82 6
e 82 8
e 82 10
e 82 14
e 82 15
e 82 18
e 82 20
e 82 22
e 82 24
e 82 26
e 82 28
e 82 29
e 82 31
e 82 32
e 82 34
e 82 37
e 82 40
e 82 44
e 82 45
e 82 46
e 82 50
e 82 51
e 82 52
e 82 54
e 82 57
e 82 58
e 82 60
e 82 61
e 82 64
e 82 66
e 82 67
e 82 68
e 82 69
e 82 70
e 82 71
e 82 74
e 82 75
e 82 76
e 82 79
e 82 80
e 82 81
e 83 0
e 83 3
e 83 4
e 83 5
e 83 9
e 83 11
e 83 12
e 83 13
e 83 14
e 83 15
e 83 16
e 83 17
e 83 19
e 83 20
e 83 21
e 83 25
e 83 26
e 83 27
e 83 28
e 83 29
e 83 35
e 83 36
e 83 42
e 83 46
e 83 51
e 83 52
e 83 57
e 83 58
e 83 61
e 83 65
e 83 68
e 83 69
e 83 71
e 83 73
e 83 77
e 83 78
e 83 79
e 83 80
e 84 4
e 84 7
e 84 11
e 84 13
e 84 15
e 84 16
e 84 17
e 84 18
e 84 19
e 84 20
e 84 21
e 84 22
e 84 24
e 84 28
e 84 30
e 84 32
e 84 34
e 84 37
e 84 38
e 84 39
e 84 40
e 84 41
e 84 42
e 84 44
e 84 45
e 84 46
e 84 49
e 84 50
e 84 53
e 84 56
e 84 58
e 84 59
e 84 62
e 84 63
e 84 64
e 84 65
e 84 67
e 84 69
e 84 73
e 84 74
e 84 76
e 84 77
e 84 79
e 84 80
e 84 82
e 84 83
e 85 0
e 85 4
e 85 5
e 85 7
e 85 10
e 85 12
e 85 13
e 85 14
e 85 16
e 85 18
e 85 23
e 85 25
e 85 26
e 85 27
e 85 28
e 85 29
e 85 30
e 85 32
e 85 33
e 85 34
e 85 36
e 85 37
e 85 40
e 85 46
e 85 51
e 85 52
e 85 53
e 85 55
e 85 58
e 85 59
e 85 60
e 85 63
e 85 65
e 85 69
e 85 72
e 85 73
e 85 74
e 85 81
e 86 2
e 86 3
e 86 4
e 86 9
e 86 10
e 86 15
e 86 16
e 86 17
e 86 18
e 86 25
e 86 26
e 86 30
e 86 31
e 86 36
e 86 38
e 86 41
e 86 44
e 86 45
e 86 49
e 86 50
e 86 52
e 86 53
e 86 54
e 86 56
e 86 57
e 86 59
e 86 65
e 86 66
e 86 67
e 86 68
e 86 69
e 86 70
e 86 74
e 86 75
e 86 76
e 86 77
e 86 78
e 86 79
e 87 3
e 87 6
e 87 7
e 87 8
e 87 13
e 87 14
e 87 19
e 87 20
e 87 21
e 87 24
e 87 25
e 87 26
e 87 27
e 87 28
e 87 29
e 87 31
e 87 32
e 87 34
e 87 37
e 87 38
e 87 39
e 87 40
e 87 41
e 87 43
e 87 44
e 87 47
e 87 55
e 87 56
e 87 57
e 87 58
e 87 60
e 87 61
e 87 63
e 87 64
e 87 66
e 87 68
e 87 72
e 87 76
e 87 78
e 87 80
e 87 83
e 87 84
e 87 85
e 88 1
e 88 2
e 88 3
e 88 10
e 88 12
e 88 13
e 88 16
e 88 17
e 88 18
e 88 23
e 88 24
e 88 26
e 88 28
e 88 29
e 88 30
e 88 35
e 88 36
e 88 38
e 88 40
e 88 43
e 88 45
e 88 49
e 88 51
e 88 52
e 88 53
e 88 54
e 88 58
e 88 59
e 88 64
e 88 66
e 88 67
e 88 68
e 88 70
e 88 72
e 88 74
e 88 76
e 88 80
e 88 81
e 88 82
e 88 83
e 89 0
e 89 1
e 89 5
e 89 7
e 89 8
e 89 14
e 89 17
e 89 20
e 89 28
e 89 30
e 89 31
e 89 32
e 89 34
e 89 35
e 89 36
e 89 37
e 89 38
e 89 39
e 89 45
e 89 46
e 89 47
e 89 49
e 89 50
e 89 53
e 89 54
e 89 55
e 89 57
e 89 59
e 89 60
e 89 61
e 89 62
e 89 63
e 89 66
e 89 67
e 89 70
e 89 73
e 89 74
e 89 75
e 89 79
e 89 81
e 89 82
e 89 83
e 89 84
e 89 85
e 89 87
e 90 1
e 90 2
e 90 4
e 90 5
e 90 6
e 90 7
e 90 9
e 90 11
e 90 14
e 90 15
e 90 19
e 90 21
e 90 24
e 90 25
e 90 29
e 90 30
e 90 31
e 90 32
e 90 33
e 90 35
e 90 37
e 90 39
e 90 41
e 90 43
e 90 45
e 90 49
e 90 51
e 90 52
e 90 56
e 90 58
e 90 62
e 90 64
e 90 65
e 90 66
e 90 70
e 90 71
e 90 72
e 90 73
e 90 75
e 90 76
e 90 77
e 90 82
e 91 2
e 91 3
e 91 5
e 91 6
e 91 7
e 91 8
e 91 10
e 91 13
e 91 15
e 91 17
e 91 19
e 91 20
e 91 21
e 91 22
e 91 23
e 91 24
e 91 26
e 91 28
e 91 29
e 91 30
e 91 31
e 91 34
e 91 36
e 91 37
e 91 39
e 91 40
e 91 42
e 91 43
e 91 44
e 91 45
e 91 48
e 91 49
e 91 50
e 91 52
e 91 53
e 91 55
e 91 57
e 91 58
e 91 59
e 91 60
e 91 61
e 91 62
e 91 63
e 91 68
e 91 70
e 91 71
e 91 73
e 91 76
e 91 77
e 91 82
e 91 83
e 91 84
e 91 85
e 91 88
e 91 90
e 92 2
e 92 4
e 92 6
e 92 7
e 92 11
e 92 12
e 92 18
e 92 19
e 92 20
e 92 23
e 92 24
e 92 28
e 92 29
e 92 31
e 92 33
e 92 36
e 92 37
e 92 43
e 92 47
e 92 48
e 92 49
e 92 51
e 92 55
e 92 56
e 92 57
e 92 59
e 92 61
e 92 62
e 92 64
e 92 66
e 92 68
e 92 69
e 92 70
e 92 71
e 92 72
e 92 74
e 92 78
e 92 79
e 92 82
e 92 83
e 92 86
e 92 87
e 92 89
e 92 91
e 93 0
e 93 3
e 93 15
e 93 18
e 93 19
e 93 20
e 93 22
e 93 23
e 93 24
e 93 27
e 93 29
e 93 30
e 93 32
e 93 33
e 93 35
e 93 36
e 93 38
e 93 43
e 93 45
e 93 48
e 93 49
e 93 50
e 93 53
e 93 55
e 93 56
e 93 59
e 93 60
e 93 63
e 93 71
e 93 73
e 93 75
e 93 78
e 93 81
e 93 86
e 93 88
e 93 91
e 94 2
e 94 4
e 94 5
e 94 6
e 94 8
e 94 10
e 94 14
e 94 15
e 94 16
e 94 17
e 94 18
e 94 19
e 94 22
e 94 23
e 94 24
e 94 26
e 94 30
e 94 32
e 94 34
e 94 36
e 94 38
e 94 39
e 94 43
e 94 45
e 94 48
e 94 50
e 94 51
e 94 53
e 94 54
e 94 56
e 94 59
e 94 65
e 94 66
e 94 68
e 94 73
e 94 74
e 94 75
e 94 78
e 94 80
e 94 82
e 94 83
e 94 86
e 94 91
e 95 0
e 95 1
e 95 6
e 95 9
e 95 10
e 95 14
e 95 18
e 95 21
e 95 22
e 95 23
e 95 24
e 95 27
e 95 28
e 95 31
e 95 32
e 95 35
e 95 37
e 95 39
e 95 40
e 95 41
e 95 45
e 95 49
e 95 50
e 95 52
e 95 60
e 95 62
e 95 63
e 95 64
e 95 68
e 95 69
e 95 70
e 95 71
e 95 72
e 95 73
e 95 74
e 95 75
e 95 76
e 95 79
e 95 81
e 95 83
e 95 84
e 95 87
e 95 88
e 95 92
e 95 93
e 96 0
e 96 3
e 96 7
e 96 8
e 96 10
e 96 11
e 96 14
e 96 19
e 96 21
e 96 24
e 96 25
e 96 28
e 96 33
e 96 34
e 96 36
e 96 37
e 96 39
e 96 49
e 96 51
e 96 52
e 96 56
e 96 60
e 96 61
e 96 62
e 96 69
e 96 70
e 96 72
e 96 73
e 96 74
e 96 75
e 96 76
e 96 78
e 96 83
e 96 88
e 96 90
e 97 1
e 97 3
e 97 5
e 97 6
e 97 8
e 97 9
e 97 10
e 97 11
e 97 12
e 97 13
e 97 15
e 97 16
e 97 20
e 97 21
e 97 22
e 97 28
e 97 31
e 97 33
e 97 34
e 97 36
e 97 38
e 97 41
e 97 43
e 97 46
e 97 48
e 97 50
e 97 52
e 97 54
e 97 55
e 97 57
e 97 59
e 97 62
e 97 66
e 97 67
e 97 68
e 97 71
e 97 72
e 97 74
e 97 76
e 97 77
e 97 79
e 97 80
e 97 83
e 97 85
e 97 86
e 97 88
e 97 89
e 97 91
e 97 96
e 98 0
e 98 1
e 98 2
e 98 3
e 98 6
e 98 7
e 98 13
e 98 15
e 98 16
e 98 18
e 98 19
e 98 20
e 98 23
e 98 25
e 98 27
e 98 29
e 98 31
e 98 33
e 98 34
e 98 37
e 98 39
e 98 43
e 98 46
e 98 47
e 98 49
e 98 51
e 98 53
e 98 54
e 98 55
e 98 56
e 98 59
e 98 60
e 98 61
e 98 62
e 98 64
e 98 66
e 98 67
e 98 70
e 98 72
e 98 83
e 98 84
e 98 92
e 98 93
e 98 97
e 99 0
e 99 3
e 99 4
e 99 5
e 99 6
e 99 7
e 99 12
e 99 15
e 99 16
e 99 18
e 99 19
e 99 20
e 99 23
e 99 25
e 99 27
e 99 28
e 99 29
e 99 31
e 99 33
e 99 35
e 99 36
e 99 39
e 99 42
e 99 44
e 99 46
e 99 49
e 99 52
e 99 53
e 99 64
e 99 65
e 99 66
e 99 67
e 99 68
e 99 72
e 99 75
e 99 76
e 99 80
e 99 83
e 99 84
e 99 88
e 99 90
e 99 91
e 99 93
