examples/satx_examples/external_satisfy/graph.sol
10
2 18 23 29 56 61 70 72 92 98
